# Solution for model r5_t27_m0_9 Batch Number: 3
# Finished Task: 24 / 27
# Makespan: 836.0, Total Distance: 497.0, Total Time: 7.2922
# R O S F Batch
0 0 21 0.0 0.0 -1
1 1 25 0.0 0.0 -1
2 2 31 0.0 0.0 -1
3 3 15 0.0 0.0 -1
4 4 13 0.0 0.0 -1
5 -1 -1 -1.0 -1.0 0
6 -1 -1 -1.0 -1.0 1
7 0 26 305.0 334.0 0
8 3 24 667.0 687.0 0
9 1 16 624.0 650.0 0
10 -1 -1 -1.0 -1.0 2
11 3 12 578.0 607.0 0
12 3 8 628.0 655.0 0
13 4 20 274.0 306.0 0
14 2 -1 815.0 836.0 2
15 3 11 306.0 333.0 0
16 1 17 720.0 756.0 1
17 1 -1 756.0 787.0 2
18 2 14 771.0 797.0 2
19 2 30 689.0 720.0 1
20 4 23 327.0 358.0 0
21 0 7 265.0 291.0 0
22 4 -1 708.0 728.0 2
23 4 22 653.0 678.0 0
24 3 -1 707.0 738.0 2
25 1 29 548.0 578.0 0
26 0 28 374.0 401.0 0
27 0 -1 672.0 699.0 2
28 0 27 425.0 457.0 0
29 1 9 595.0 615.0 0
30 2 18 734.0 771.0 2
31 2 19 611.0 646.0 0
